NAME: Random_65_1
ELLAPSED_TIME_(ms): 0
TOUR_SIZE: 1582.5043
TOUR_SECTION
0
2
38
60
47
25
9
32
57
22
41
12
4
17
16
42
1
58
62
14
63
59
3
13
52
26
43
18
40
48
36
33
21
30
39
46
56
5
6
24
37
8
15
35
44
19
54
55
31
34
28
27
23
50
51
64
45
53
61
49
10
20
7
11
29
0
EOF
